c SAT Generator for power-law distributed variable frequencies
c -g u -v 20 -c 91 -k 3 -p 2.750000 -b 3.200000 -f /home/schmidt/Devel/ni-kop-sat/data/ensemble/ruf20-91/ruf20-91-35 -u 1 -U 1 -s 69198329
p cnf 20 91
-6 7 15 0
6 -10 -18 0
-1 -10 -13 0
7 10 18 0
-4 11 -20 0
2 3 -12 0
5 13 20 0
-8 9 16 0
6 7 -15 0
10 17 -20 0
-11 15 19 0
1 -8 -9 0
-3 -7 -9 0
2 6 20 0
-4 5 20 0
4 12 13 0
-2 18 -20 0
-6 -10 -15 0
-7 -9 -12 0
-3 4 19 0
1 -5 -7 0
11 -12 -20 0
-6 -16 -18 0
-4 9 -14 0
5 -13 -15 0
-5 15 -17 0
-9 -12 20 0
-3 5 7 0
4 -6 18 0
-6 8 16 0
1 6 16 0
1 5 7 0
-1 -5 -9 0
-3 -18 -20 0
3 -10 13 0
-3 16 19 0
4 -6 -18 0
-12 -16 -20 0
13 -15 -18 0
1 8 17 0
-7 10 17 0
-3 6 18 0
-2 -17 18 0
-5 -10 20 0
5 -10 -11 0
4 -6 7 0
-6 12 13 0
-7 10 -16 0
-6 -12 18 0
16 -17 18 0
1 5 -9 0
-6 10 -19 0
2 -15 -20 0
-10 11 17 0
4 -5 20 0
-9 -13 -14 0
1 9 10 0
-5 -7 8 0
-3 7 -19 0
-4 5 -19 0
2 9 11 0
-8 11 -15 0
5 -7 18 0
-8 14 -17 0
-3 -16 -20 0
7 9 -13 0
2 -4 11 0
3 4 18 0
3 -13 17 0
2 -3 -6 0
3 -4 18 0
-3 7 -17 0
-4 14 -16 0
1 -8 17 0
-4 8 -18 0
-5 7 -11 0
1 -7 -11 0
5 6 17 0
-4 7 12 0
-10 -12 -17 0
-11 15 -18 0
-1 2 15 0
1 10 11 0
10 -11 17 0
-8 -14 -19 0
13 14 -20 0
-14 15 -17 0
2 -5 7 0
-5 14 19 0
-2 -5 -7 0
-3 13 19 0
